100
128
58
11
61
54
30
45
8
36
63
25
4
51
32
43
49
9
54
54
7
64
12
16
43
11
13
56
31
13
41
42
57
12
10
32
20
1
25
29
22
24
30
23
18
28
28
53
26
53
35
18
40
27
21
24
2
55
40
25
14
39
53
18
48
38
25
51
47
55
22
42
22
53
49
27
57
32
56
28
59
20
3
23
58
22
55
28
43
63
30
26
61
58
29
36
47
24
43
31
56
64